(declare-const c_0 Real)
(declare-const c_1 Real)
(declare-const c_2 Real)
(declare-const c_3 Real)
(declare-const c_4 Real)
(declare-const c_5 Real)
(declare-const c_6 Real)
(declare-const c_7 Real)
(declare-const c_8 Real)
(declare-const c_9 Real)
(declare-const c_10 Real)
(declare-const c_11 Real)
(declare-const c_12 Real)
(declare-const c_13 Real)
(declare-const c_14 Real)
(declare-const c_15 Real)
(declare-const c_16 Real)
(declare-const c_17 Real)
(declare-const s_0 Real)
(declare-const s_1 Real)
(declare-const s_2 Real)
(declare-const s_3 Real)
(declare-const s_4 Real)
(declare-const s_5 Real)
(declare-const s_6 Real)
(declare-const s_7 Real)
(declare-const s_8 Real)
(declare-const s_9 Real)
(declare-const s_10 Real)
(declare-const s_11 Real)
(declare-const s_12 Real)
(declare-const s_13 Real)
(declare-const s_14 Real)
(declare-const s_15 Real)
(declare-const s_16 Real)
(declare-const s_17 Real)
(assert (forall ((flag Real) (c Real) (x Real) (y Real) (z Real) ) (=> (and (>= (+ (* 1024 1) (* 1 flag ) ) 0) (>= (+ (* 1023 1) (* (- 1) flag ) ) 0) (>= (+ (* 1024 1) (* 1 c ) ) 0) (>= (+ (* 1023 1) (* (- 1) c ) ) 0) (>= (+ (* 1024 1) (* 1 x ) ) 0) (>= (+ (* 1023 1) (* (- 1) x ) ) 0) (>= (+ (* 1024 1) (* 1 y ) ) 0) (>= (+ (* 1023 1) (* (- 1) y ) ) 0) (>= (+ (* 1024 1) (* 1 z ) ) 0) (>= (+ (* 1023 1) (* (- 1) z ) ) 0) ) (>= (+ (* 1 c s_1 ) (* 1 flag s_2 ) (* 1 s_0 ) (* 1 s_3 x ) (* 1 s_4 y ) (* 1 s_5 z ) ) 0) )))
(assert (forall ((flag Real) (c Real) (x Real) (y Real) (z Real) ) (=> (and (>= (+ (* 1024 1) (* 1 flag ) ) 0) (>= (+ (* 1023 1) (* (- 1) flag ) ) 0) (>= (+ (* 1024 1) (* 1 c ) ) 0) (>= (+ (* 1023 1) (* (- 1) c ) ) 0) (>= (+ (* 1024 1) (* 1 x ) ) 0) (>= (+ (* 1023 1) (* (- 1) x ) ) 0) (>= (+ (* 1024 1) (* 1 y ) ) 0) (>= (+ (* 1023 1) (* (- 1) y ) ) 0) (>= (+ (* 1024 1) (* 1 z ) ) 0) (>= (+ (* 1023 1) (* (- 1) z ) ) 0) ) (>= (+ (* 1 c c_1 ) (* 1 c_0 ) (* 1 c_2 flag ) (* 1 c_3 x ) (* 1 c_4 y ) (* 1 c_5 z ) ) 0) )))
(assert (forall ((flag Real) (c Real) (x Real) (y Real) (z Real) ) (=> (and (>= (+ (* 1023 1) (* (- 1) z ) ) 0) (>= (+ (* 1024 1) (* 1 z ) ) 0) (>= (+ (* 1023 1) (* (- 1) y ) ) 0) (>= (+ (* 1024 1) (* 1 y ) ) 0) (>= (+ (* 1023 1) (* (- 1) x ) ) 0) (>= (+ (* 1024 1) (* 1 x ) ) 0) (>= (+ (* 1023 1) (* (- 1) c ) ) 0) (>= (+ (* 1024 1) (* 1 c ) ) 0) (>= (+ (* 1023 1) (* (- 1) flag ) ) 0) (>= (+ (* 1024 1) (* 1 flag ) ) 0) (>= (+ (* 1 c s_1 ) (* 1 flag s_2 ) (* 1 s_0 ) (* 1 s_3 x ) (* 1 s_4 y ) (* 1 s_5 z ) ) 0) ) (>= (+ (* 1 s_10 y ) (* 1 s_11 z ) (* 1 s_6 ) (* 1 s_8 ) (* 1 s_9 x ) ) 0) )))
(assert (forall ((flag Real) (c Real) (x Real) (y Real) (z Real) ) (=> (and (>= (+ (* 1023 1) (* (- 1) z ) ) 0) (>= (+ (* 1024 1) (* 1 z ) ) 0) (>= (+ (* 1023 1) (* (- 1) y ) ) 0) (>= (+ (* 1024 1) (* 1 y ) ) 0) (>= (+ (* 1023 1) (* (- 1) x ) ) 0) (>= (+ (* 1024 1) (* 1 x ) ) 0) (>= (+ (* 1023 1) (* (- 1) c ) ) 0) (>= (+ (* 1024 1) (* 1 c ) ) 0) (>= (+ (* 1023 1) (* (- 1) flag ) ) 0) (>= (+ (* 1024 1) (* 1 flag ) ) 0) (>= (+ (* 1 c s_1 ) (* 1 flag s_2 ) (* 1 s_0 ) (* 1 s_3 x ) (* 1 s_4 y ) (* 1 s_5 z ) ) 0) ) (>= (+ (* 1 c_10 y ) (* 1 c_11 z ) (* 1 c_6 ) (* 1 c_8 ) (* 1 c_9 x ) ) 0) )))
(assert (forall ((flag Real) (c Real) (x Real) (y Real) (z Real) ) (=> (and (>= (+ (* 1023 1) (* (- 1) z ) ) 0) (>= (+ (* 1024 1) (* 1 z ) ) 0) (>= (+ (* 1023 1) (* (- 1) y ) ) 0) (>= (+ (* 1024 1) (* 1 y ) ) 0) (>= (+ (* 1023 1) (* (- 1) x ) ) 0) (>= (+ (* 1024 1) (* 1 x ) ) 0) (>= (+ (* 1023 1) (* (- 1) c ) ) 0) (>= (+ (* 1024 1) (* 1 c ) ) 0) (>= (+ (* 1023 1) (* (- 1) flag ) ) 0) (>= (+ (* 1024 1) (* 1 flag ) ) 0) (>= (+ (* 1 c s_1 ) (* 1 flag s_2 ) (* 1 s_0 ) (* 1 s_3 x ) (* 1 s_4 y ) (* 1 s_5 z ) ) 0) ) (>= (+ (* (- 1) 1) (* 1 c c_1 ) (* 1 c_0 ) (* (- 1) c_10 y ) (* (- 1) c_11 z ) (* 1 c_2 flag ) (* 1 c_3 x ) (* 1 c_4 y ) (* 1 c_5 z ) (* (- 1) c_6 ) (* (- 1) c_8 ) (* (- 1) c_9 x ) ) 0) )))
(assert (forall ((flag Real) (c Real) (x Real) (y Real) (z Real) ) (=> (and (>= (+ (* (- 1) 1) (* 1 y ) ) 0) (>= (+ (* (- 2) 1) (* 1 x ) ) 0) (>= (+ (* (- 1) 1) (* (- 1) y ) (* 1 z ) ) 0) (>= (+ (* (- 1) 1) (* 1 flag ) ) 0) (>= (+ (* 1023 1) (* (- 1) z ) ) 0) (>= (+ (* 1 1) (* (- 1) flag ) ) 0) (>= (+ (* 1023 1) (* (- 1) x ) ) 0) (>= (+ (* 1024 1) (* 1 x ) ) 0) (>= (+ (* (- 1) 1) (* 1 c ) (* 1 flag ) ) 0) (>= (+ (* 1 c s_7 ) (* 1 flag s_8 ) (* 1 s_10 y ) (* 1 s_11 z ) (* 1 s_6 ) (* 1 s_9 x ) ) 0) ) (>= (+ (* 1 c s_7 ) (* 1 flag s_8 ) (* 1 s_10 x y ) (* 1 s_11 z ) (* 1 s_6 ) (* 1 s_7 ) (* 1 s_9 x ) ) 0) )))
(assert (forall ((flag Real) (c Real) (x Real) (y Real) (z Real) ) (=> (and (>= (+ (* (- 1) 1) (* 1 y ) ) 0) (>= (+ (* (- 2) 1) (* 1 x ) ) 0) (>= (+ (* (- 1) 1) (* (- 1) y ) (* 1 z ) ) 0) (>= (+ (* (- 1) 1) (* 1 flag ) ) 0) (>= (+ (* 1023 1) (* (- 1) z ) ) 0) (>= (+ (* 1 1) (* (- 1) flag ) ) 0) (>= (+ (* 1023 1) (* (- 1) x ) ) 0) (>= (+ (* 1024 1) (* 1 x ) ) 0) (>= (+ (* (- 1) 1) (* 1 c ) (* 1 flag ) ) 0) (>= (+ (* 1 c s_7 ) (* 1 flag s_8 ) (* 1 s_10 y ) (* 1 s_11 z ) (* 1 s_6 ) (* 1 s_9 x ) ) 0) ) (>= (+ (* 1 c c_7 ) (* 1 c_10 x y ) (* 1 c_11 z ) (* 1 c_6 ) (* 1 c_7 ) (* 1 c_8 flag ) (* 1 c_9 x ) ) 0) )))
(assert (forall ((flag Real) (c Real) (x Real) (y Real) (z Real) ) (=> (and (>= (+ (* (- 1) 1) (* 1 y ) ) 0) (>= (+ (* (- 2) 1) (* 1 x ) ) 0) (>= (+ (* (- 1) 1) (* (- 1) y ) (* 1 z ) ) 0) (>= (+ (* (- 1) 1) (* 1 flag ) ) 0) (>= (+ (* 1023 1) (* (- 1) z ) ) 0) (>= (+ (* 1 1) (* (- 1) flag ) ) 0) (>= (+ (* 1023 1) (* (- 1) x ) ) 0) (>= (+ (* 1024 1) (* 1 x ) ) 0) (>= (+ (* (- 1) 1) (* 1 c ) (* 1 flag ) ) 0) (>= (+ (* 1 c s_7 ) (* 1 flag s_8 ) (* 1 s_10 y ) (* 1 s_11 z ) (* 1 s_6 ) (* 1 s_9 x ) ) 0) ) (>= (+ (* (- 1) 1) (* (- 1) c_10 x y ) (* 1 c_10 y ) (* (- 1) c_7 ) ) 0) )))
(assert (forall ((flag Real) (c Real) (x Real) (y Real) (z Real) ) (=> (and (>= (+ (* (- 1) 1) (* 1 y ) ) 0) (>= (+ (* (- 2) 1) (* (- 1) x ) ) 0) (>= (* (- 1) y ) 0) (>= (+ (* (- 1) 1) (* (- 1) y ) (* 1 z ) ) 0) (>= (+ (* (- 1) 1) (* 1 flag ) ) 0) (>= (+ (* 1023 1) (* (- 1) z ) ) 0) (>= (+ (* 1 1) (* (- 1) flag ) ) 0) (>= (+ (* 1023 1) (* (- 1) x ) ) 0) (>= (+ (* 1024 1) (* 1 x ) ) 0) (>= (+ (* (- 1) 1) (* 1 c ) (* 1 flag ) ) 0) (>= (+ (* 1 c s_7 ) (* 1 flag s_8 ) (* 1 s_10 y ) (* 1 s_11 z ) (* 1 s_6 ) (* 1 s_9 x ) ) 0) ) (>= (+ (* 1 c s_7 ) (* 1 flag s_8 ) (* (- 1) s_10 x y ) (* 1 s_11 z ) (* 1 s_6 ) (* 1 s_7 ) (* 1 s_9 x ) ) 0) )))
(assert (forall ((flag Real) (c Real) (x Real) (y Real) (z Real) ) (=> (and (>= (+ (* (- 1) 1) (* 1 y ) ) 0) (>= (+ (* (- 2) 1) (* (- 1) x ) ) 0) (>= (* (- 1) y ) 0) (>= (+ (* (- 1) 1) (* (- 1) y ) (* 1 z ) ) 0) (>= (+ (* (- 1) 1) (* 1 flag ) ) 0) (>= (+ (* 1023 1) (* (- 1) z ) ) 0) (>= (+ (* 1 1) (* (- 1) flag ) ) 0) (>= (+ (* 1023 1) (* (- 1) x ) ) 0) (>= (+ (* 1024 1) (* 1 x ) ) 0) (>= (+ (* (- 1) 1) (* 1 c ) (* 1 flag ) ) 0) (>= (+ (* 1 c s_7 ) (* 1 flag s_8 ) (* 1 s_10 y ) (* 1 s_11 z ) (* 1 s_6 ) (* 1 s_9 x ) ) 0) ) (>= (+ (* 1 c c_7 ) (* (- 1) c_10 x y ) (* 1 c_11 z ) (* 1 c_6 ) (* 1 c_7 ) (* 1 c_8 flag ) (* 1 c_9 x ) ) 0) )))
(assert (forall ((flag Real) (c Real) (x Real) (y Real) (z Real) ) (=> (and (>= (+ (* (- 1) 1) (* 1 y ) ) 0) (>= (+ (* (- 2) 1) (* (- 1) x ) ) 0) (>= (* (- 1) y ) 0) (>= (+ (* (- 1) 1) (* (- 1) y ) (* 1 z ) ) 0) (>= (+ (* (- 1) 1) (* 1 flag ) ) 0) (>= (+ (* 1023 1) (* (- 1) z ) ) 0) (>= (+ (* 1 1) (* (- 1) flag ) ) 0) (>= (+ (* 1023 1) (* (- 1) x ) ) 0) (>= (+ (* 1024 1) (* 1 x ) ) 0) (>= (+ (* (- 1) 1) (* 1 c ) (* 1 flag ) ) 0) (>= (+ (* 1 c s_7 ) (* 1 flag s_8 ) (* 1 s_10 y ) (* 1 s_11 z ) (* 1 s_6 ) (* 1 s_9 x ) ) 0) ) (>= (+ (* (- 1) 1) (* 1 c_10 x y ) (* 1 c_10 y ) (* (- 1) c_7 ) ) 0) )))
(assert (forall ((flag Real) (c Real) (x Real) (y Real) (z Real) ) (=> (and (>= (* (- 1) y ) 0) (>= (+ (* (- 1) 1) (* (- 1) y ) (* 1 z ) ) 0) (>= (+ (* (- 1) 1) (* 1 flag ) ) 0) (>= (+ (* 1023 1) (* (- 1) z ) ) 0) (>= (+ (* 1 1) (* (- 1) flag ) ) 0) (>= (+ (* 1023 1) (* (- 1) x ) ) 0) (>= (+ (* 1024 1) (* 1 x ) ) 0) (>= (+ (* (- 1) 1) (* 1 c ) (* 1 flag ) ) 0) (>= (+ (* 1 c s_7 ) (* 1 flag s_8 ) (* 1 s_10 y ) (* 1 s_11 z ) (* 1 s_6 ) (* 1 s_9 x ) ) 0) ) (>= (+ (* 1 c s_7 ) (* 1 s_10 y ) (* 1 s_11 z ) (* 1 s_6 ) (* 1 s_7 ) (* 1 s_9 x ) ) 0) )))
(assert (forall ((flag Real) (c Real) (x Real) (y Real) (z Real) ) (=> (and (>= (* (- 1) y ) 0) (>= (+ (* (- 1) 1) (* (- 1) y ) (* 1 z ) ) 0) (>= (+ (* (- 1) 1) (* 1 flag ) ) 0) (>= (+ (* 1023 1) (* (- 1) z ) ) 0) (>= (+ (* 1 1) (* (- 1) flag ) ) 0) (>= (+ (* 1023 1) (* (- 1) x ) ) 0) (>= (+ (* 1024 1) (* 1 x ) ) 0) (>= (+ (* (- 1) 1) (* 1 c ) (* 1 flag ) ) 0) (>= (+ (* 1 c s_7 ) (* 1 flag s_8 ) (* 1 s_10 y ) (* 1 s_11 z ) (* 1 s_6 ) (* 1 s_9 x ) ) 0) ) (>= (+ (* 1 c c_7 ) (* 1 c_10 y ) (* 1 c_11 z ) (* 1 c_6 ) (* 1 c_7 ) (* 1 c_9 x ) ) 0) )))
(assert (forall ((flag Real) (c Real) (x Real) (y Real) (z Real) ) (=> (and (>= (* (- 1) y ) 0) (>= (+ (* (- 1) 1) (* (- 1) y ) (* 1 z ) ) 0) (>= (+ (* (- 1) 1) (* 1 flag ) ) 0) (>= (+ (* 1023 1) (* (- 1) z ) ) 0) (>= (+ (* 1 1) (* (- 1) flag ) ) 0) (>= (+ (* 1023 1) (* (- 1) x ) ) 0) (>= (+ (* 1024 1) (* 1 x ) ) 0) (>= (+ (* (- 1) 1) (* 1 c ) (* 1 flag ) ) 0) (>= (+ (* 1 c s_7 ) (* 1 flag s_8 ) (* 1 s_10 y ) (* 1 s_11 z ) (* 1 s_6 ) (* 1 s_9 x ) ) 0) ) (>= (+ (* (- 1) 1) (* (- 1) c_7 ) (* 1 c_8 flag ) ) 0) )))
(assert (forall ((flag Real) (c Real) (x Real) (y Real) (z Real) ) (=> (and (>= (+ (* 1 1) (* 1 x ) ) 0) (>= (* (- 1) y ) 0) (>= (+ (* (- 1) 1) (* (- 1) y ) (* 1 z ) ) 0) (>= (+ (* (- 1) 1) (* 1 flag ) ) 0) (>= (+ (* 1023 1) (* (- 1) z ) ) 0) (>= (+ (* 1 1) (* (- 1) flag ) ) 0) (>= (+ (* 1023 1) (* (- 1) x ) ) 0) (>= (+ (* 1024 1) (* 1 x ) ) 0) (>= (+ (* (- 1) 1) (* 1 c ) (* 1 flag ) ) 0) (>= (+ (* 1 c s_7 ) (* 1 flag s_8 ) (* 1 s_10 y ) (* 1 s_11 z ) (* 1 s_6 ) (* 1 s_9 x ) ) 0) ) (>= (+ (* 1 c s_7 ) (* 1 s_10 y ) (* 1 s_11 z ) (* 1 s_6 ) (* 1 s_7 ) (* 1 s_9 x ) ) 0) )))
(assert (forall ((flag Real) (c Real) (x Real) (y Real) (z Real) ) (=> (and (>= (+ (* 1 1) (* 1 x ) ) 0) (>= (* (- 1) y ) 0) (>= (+ (* (- 1) 1) (* (- 1) y ) (* 1 z ) ) 0) (>= (+ (* (- 1) 1) (* 1 flag ) ) 0) (>= (+ (* 1023 1) (* (- 1) z ) ) 0) (>= (+ (* 1 1) (* (- 1) flag ) ) 0) (>= (+ (* 1023 1) (* (- 1) x ) ) 0) (>= (+ (* 1024 1) (* 1 x ) ) 0) (>= (+ (* (- 1) 1) (* 1 c ) (* 1 flag ) ) 0) (>= (+ (* 1 c s_7 ) (* 1 flag s_8 ) (* 1 s_10 y ) (* 1 s_11 z ) (* 1 s_6 ) (* 1 s_9 x ) ) 0) ) (>= (+ (* 1 c c_7 ) (* 1 c_10 y ) (* 1 c_11 z ) (* 1 c_6 ) (* 1 c_7 ) (* 1 c_9 x ) ) 0) )))
(assert (forall ((flag Real) (c Real) (x Real) (y Real) (z Real) ) (=> (and (>= (+ (* 1 1) (* 1 x ) ) 0) (>= (* (- 1) y ) 0) (>= (+ (* (- 1) 1) (* (- 1) y ) (* 1 z ) ) 0) (>= (+ (* (- 1) 1) (* 1 flag ) ) 0) (>= (+ (* 1023 1) (* (- 1) z ) ) 0) (>= (+ (* 1 1) (* (- 1) flag ) ) 0) (>= (+ (* 1023 1) (* (- 1) x ) ) 0) (>= (+ (* 1024 1) (* 1 x ) ) 0) (>= (+ (* (- 1) 1) (* 1 c ) (* 1 flag ) ) 0) (>= (+ (* 1 c s_7 ) (* 1 flag s_8 ) (* 1 s_10 y ) (* 1 s_11 z ) (* 1 s_6 ) (* 1 s_9 x ) ) 0) ) (>= (+ (* (- 1) 1) (* (- 1) c_7 ) (* 1 c_8 flag ) ) 0) )))
(assert (forall ((flag Real) (c Real) (x Real) (y Real) (z Real) ) (=> (and (>= (+ (* (- 1) 1) (* 1 y ) ) 0) (>= (+ (* (- 2) 1) (* (- 1) x ) ) 0) (>= (+ (* 1 1) (* (- 1) x ) ) 0) (>= (+ (* (- 1) 1) (* (- 1) y ) (* 1 z ) ) 0) (>= (+ (* (- 1) 1) (* 1 flag ) ) 0) (>= (+ (* 1023 1) (* (- 1) z ) ) 0) (>= (+ (* 1 1) (* (- 1) flag ) ) 0) (>= (+ (* 1023 1) (* (- 1) x ) ) 0) (>= (+ (* 1024 1) (* 1 x ) ) 0) (>= (+ (* (- 1) 1) (* 1 c ) (* 1 flag ) ) 0) (>= (+ (* 1 c s_7 ) (* 1 flag s_8 ) (* 1 s_10 y ) (* 1 s_11 z ) (* 1 s_6 ) (* 1 s_9 x ) ) 0) ) (>= (+ (* 1 c s_7 ) (* 1 flag s_8 ) (* (- 1) s_10 x y ) (* 1 s_11 z ) (* 1 s_6 ) (* 1 s_7 ) (* 1 s_9 x ) ) 0) )))
(assert (forall ((flag Real) (c Real) (x Real) (y Real) (z Real) ) (=> (and (>= (+ (* (- 1) 1) (* 1 y ) ) 0) (>= (+ (* (- 2) 1) (* (- 1) x ) ) 0) (>= (+ (* 1 1) (* (- 1) x ) ) 0) (>= (+ (* (- 1) 1) (* (- 1) y ) (* 1 z ) ) 0) (>= (+ (* (- 1) 1) (* 1 flag ) ) 0) (>= (+ (* 1023 1) (* (- 1) z ) ) 0) (>= (+ (* 1 1) (* (- 1) flag ) ) 0) (>= (+ (* 1023 1) (* (- 1) x ) ) 0) (>= (+ (* 1024 1) (* 1 x ) ) 0) (>= (+ (* (- 1) 1) (* 1 c ) (* 1 flag ) ) 0) (>= (+ (* 1 c s_7 ) (* 1 flag s_8 ) (* 1 s_10 y ) (* 1 s_11 z ) (* 1 s_6 ) (* 1 s_9 x ) ) 0) ) (>= (+ (* 1 c c_7 ) (* (- 1) c_10 x y ) (* 1 c_11 z ) (* 1 c_6 ) (* 1 c_7 ) (* 1 c_8 flag ) (* 1 c_9 x ) ) 0) )))
(assert (forall ((flag Real) (c Real) (x Real) (y Real) (z Real) ) (=> (and (>= (+ (* (- 1) 1) (* 1 y ) ) 0) (>= (+ (* (- 2) 1) (* (- 1) x ) ) 0) (>= (+ (* 1 1) (* (- 1) x ) ) 0) (>= (+ (* (- 1) 1) (* (- 1) y ) (* 1 z ) ) 0) (>= (+ (* (- 1) 1) (* 1 flag ) ) 0) (>= (+ (* 1023 1) (* (- 1) z ) ) 0) (>= (+ (* 1 1) (* (- 1) flag ) ) 0) (>= (+ (* 1023 1) (* (- 1) x ) ) 0) (>= (+ (* 1024 1) (* 1 x ) ) 0) (>= (+ (* (- 1) 1) (* 1 c ) (* 1 flag ) ) 0) (>= (+ (* 1 c s_7 ) (* 1 flag s_8 ) (* 1 s_10 y ) (* 1 s_11 z ) (* 1 s_6 ) (* 1 s_9 x ) ) 0) ) (>= (+ (* (- 1) 1) (* 1 c_10 x y ) (* 1 c_10 y ) (* (- 1) c_7 ) ) 0) )))
(assert (forall ((flag Real) (c Real) (x Real) (y Real) (z Real) ) (=> (and (>= (* (- 1) y ) 0) (>= (+ (* 1 1) (* (- 1) x ) ) 0) (>= (+ (* (- 1) 1) (* (- 1) y ) (* 1 z ) ) 0) (>= (+ (* (- 1) 1) (* 1 flag ) ) 0) (>= (+ (* 1023 1) (* (- 1) z ) ) 0) (>= (+ (* 1 1) (* (- 1) flag ) ) 0) (>= (+ (* 1023 1) (* (- 1) x ) ) 0) (>= (+ (* 1024 1) (* 1 x ) ) 0) (>= (+ (* (- 1) 1) (* 1 c ) (* 1 flag ) ) 0) (>= (+ (* 1 c s_7 ) (* 1 flag s_8 ) (* 1 s_10 y ) (* 1 s_11 z ) (* 1 s_6 ) (* 1 s_9 x ) ) 0) ) (>= (+ (* 1 c s_7 ) (* 1 s_10 y ) (* 1 s_11 z ) (* 1 s_6 ) (* 1 s_7 ) (* 1 s_9 x ) ) 0) )))
(assert (forall ((flag Real) (c Real) (x Real) (y Real) (z Real) ) (=> (and (>= (* (- 1) y ) 0) (>= (+ (* 1 1) (* (- 1) x ) ) 0) (>= (+ (* (- 1) 1) (* (- 1) y ) (* 1 z ) ) 0) (>= (+ (* (- 1) 1) (* 1 flag ) ) 0) (>= (+ (* 1023 1) (* (- 1) z ) ) 0) (>= (+ (* 1 1) (* (- 1) flag ) ) 0) (>= (+ (* 1023 1) (* (- 1) x ) ) 0) (>= (+ (* 1024 1) (* 1 x ) ) 0) (>= (+ (* (- 1) 1) (* 1 c ) (* 1 flag ) ) 0) (>= (+ (* 1 c s_7 ) (* 1 flag s_8 ) (* 1 s_10 y ) (* 1 s_11 z ) (* 1 s_6 ) (* 1 s_9 x ) ) 0) ) (>= (+ (* 1 c c_7 ) (* 1 c_10 y ) (* 1 c_11 z ) (* 1 c_6 ) (* 1 c_7 ) (* 1 c_9 x ) ) 0) )))
(assert (forall ((flag Real) (c Real) (x Real) (y Real) (z Real) ) (=> (and (>= (* (- 1) y ) 0) (>= (+ (* 1 1) (* (- 1) x ) ) 0) (>= (+ (* (- 1) 1) (* (- 1) y ) (* 1 z ) ) 0) (>= (+ (* (- 1) 1) (* 1 flag ) ) 0) (>= (+ (* 1023 1) (* (- 1) z ) ) 0) (>= (+ (* 1 1) (* (- 1) flag ) ) 0) (>= (+ (* 1023 1) (* (- 1) x ) ) 0) (>= (+ (* 1024 1) (* 1 x ) ) 0) (>= (+ (* (- 1) 1) (* 1 c ) (* 1 flag ) ) 0) (>= (+ (* 1 c s_7 ) (* 1 flag s_8 ) (* 1 s_10 y ) (* 1 s_11 z ) (* 1 s_6 ) (* 1 s_9 x ) ) 0) ) (>= (+ (* (- 1) 1) (* (- 1) c_7 ) (* 1 c_8 flag ) ) 0) )))
(assert (forall ((flag Real) (c Real) (x Real) (y Real) (z Real) ) (=> (and (>= (+ (* 1 1) (* 1 x ) ) 0) (>= (+ (* 1 1) (* (- 1) x ) ) 0) (>= (+ (* (- 1) 1) (* (- 1) y ) (* 1 z ) ) 0) (>= (+ (* (- 1) 1) (* 1 flag ) ) 0) (>= (+ (* 1023 1) (* (- 1) z ) ) 0) (>= (+ (* 1 1) (* (- 1) flag ) ) 0) (>= (+ (* 1023 1) (* (- 1) x ) ) 0) (>= (+ (* 1024 1) (* 1 x ) ) 0) (>= (+ (* (- 1) 1) (* 1 c ) (* 1 flag ) ) 0) (>= (+ (* 1 c s_7 ) (* 1 flag s_8 ) (* 1 s_10 y ) (* 1 s_11 z ) (* 1 s_6 ) (* 1 s_9 x ) ) 0) ) (>= (+ (* 1 c s_7 ) (* 1 s_10 y ) (* 1 s_11 z ) (* 1 s_6 ) (* 1 s_7 ) (* 1 s_9 x ) ) 0) )))
(assert (forall ((flag Real) (c Real) (x Real) (y Real) (z Real) ) (=> (and (>= (+ (* 1 1) (* 1 x ) ) 0) (>= (+ (* 1 1) (* (- 1) x ) ) 0) (>= (+ (* (- 1) 1) (* (- 1) y ) (* 1 z ) ) 0) (>= (+ (* (- 1) 1) (* 1 flag ) ) 0) (>= (+ (* 1023 1) (* (- 1) z ) ) 0) (>= (+ (* 1 1) (* (- 1) flag ) ) 0) (>= (+ (* 1023 1) (* (- 1) x ) ) 0) (>= (+ (* 1024 1) (* 1 x ) ) 0) (>= (+ (* (- 1) 1) (* 1 c ) (* 1 flag ) ) 0) (>= (+ (* 1 c s_7 ) (* 1 flag s_8 ) (* 1 s_10 y ) (* 1 s_11 z ) (* 1 s_6 ) (* 1 s_9 x ) ) 0) ) (>= (+ (* 1 c c_7 ) (* 1 c_10 y ) (* 1 c_11 z ) (* 1 c_6 ) (* 1 c_7 ) (* 1 c_9 x ) ) 0) )))
(assert (forall ((flag Real) (c Real) (x Real) (y Real) (z Real) ) (=> (and (>= (+ (* 1 1) (* 1 x ) ) 0) (>= (+ (* 1 1) (* (- 1) x ) ) 0) (>= (+ (* (- 1) 1) (* (- 1) y ) (* 1 z ) ) 0) (>= (+ (* (- 1) 1) (* 1 flag ) ) 0) (>= (+ (* 1023 1) (* (- 1) z ) ) 0) (>= (+ (* 1 1) (* (- 1) flag ) ) 0) (>= (+ (* 1023 1) (* (- 1) x ) ) 0) (>= (+ (* 1024 1) (* 1 x ) ) 0) (>= (+ (* (- 1) 1) (* 1 c ) (* 1 flag ) ) 0) (>= (+ (* 1 c s_7 ) (* 1 flag s_8 ) (* 1 s_10 y ) (* 1 s_11 z ) (* 1 s_6 ) (* 1 s_9 x ) ) 0) ) (>= (+ (* (- 1) 1) (* (- 1) c_7 ) (* 1 c_8 flag ) ) 0) )))
(assert (forall ((flag Real) (c Real) (x Real) (y Real) (z Real) ) (=> (and (>= (+ (* 1 y ) (* (- 1) z ) ) 0) (>= (+ (* 1023 1) (* (- 1) z ) ) 0) (>= (+ (* 1 1) (* (- 1) flag ) ) 0) (>= (+ (* 1023 1) (* (- 1) x ) ) 0) (>= (+ (* 1024 1) (* 1 x ) ) 0) (>= (+ (* (- 1) 1) (* 1 c ) (* 1 flag ) ) 0) (>= (+ (* 1 c s_7 ) (* 1 flag s_8 ) (* 1 s_10 y ) (* 1 s_11 z ) (* 1 s_6 ) (* 1 s_9 x ) ) 0) ) (>= (+ (* 1 c s_13 ) (* 1 flag s_14 ) (* 1 s_12 ) (* 1 s_15 x ) (* 1 s_16 y ) (* 1 s_17 z ) ) 0) )))
(assert (forall ((flag Real) (c Real) (x Real) (y Real) (z Real) ) (=> (and (>= (+ (* 1 y ) (* (- 1) z ) ) 0) (>= (+ (* 1023 1) (* (- 1) z ) ) 0) (>= (+ (* 1 1) (* (- 1) flag ) ) 0) (>= (+ (* 1023 1) (* (- 1) x ) ) 0) (>= (+ (* 1024 1) (* 1 x ) ) 0) (>= (+ (* (- 1) 1) (* 1 c ) (* 1 flag ) ) 0) (>= (+ (* 1 c s_7 ) (* 1 flag s_8 ) (* 1 s_10 y ) (* 1 s_11 z ) (* 1 s_6 ) (* 1 s_9 x ) ) 0) ) (>= (+ (* 1 c c_13 ) (* 1 c_12 ) (* 1 c_14 flag ) (* 1 c_15 x ) (* 1 c_16 y ) (* 1 c_17 z ) ) 0) )))
(assert (forall ((flag Real) (c Real) (x Real) (y Real) (z Real) ) (=> (and (>= (* (- 1) flag ) 0) (>= (+ (* 1023 1) (* (- 1) z ) ) 0) (>= (+ (* 1 1) (* (- 1) flag ) ) 0) (>= (+ (* 1023 1) (* (- 1) x ) ) 0) (>= (+ (* 1024 1) (* 1 x ) ) 0) (>= (+ (* (- 1) 1) (* 1 c ) (* 1 flag ) ) 0) (>= (+ (* 1 c s_7 ) (* 1 flag s_8 ) (* 1 s_10 y ) (* 1 s_11 z ) (* 1 s_6 ) (* 1 s_9 x ) ) 0) ) (>= (+ (* 1 c s_13 ) (* 1 flag s_14 ) (* 1 s_12 ) (* 1 s_15 x ) (* 1 s_16 y ) (* 1 s_17 z ) ) 0) )))
(assert (forall ((flag Real) (c Real) (x Real) (y Real) (z Real) ) (=> (and (>= (* (- 1) flag ) 0) (>= (+ (* 1023 1) (* (- 1) z ) ) 0) (>= (+ (* 1 1) (* (- 1) flag ) ) 0) (>= (+ (* 1023 1) (* (- 1) x ) ) 0) (>= (+ (* 1024 1) (* 1 x ) ) 0) (>= (+ (* (- 1) 1) (* 1 c ) (* 1 flag ) ) 0) (>= (+ (* 1 c s_7 ) (* 1 flag s_8 ) (* 1 s_10 y ) (* 1 s_11 z ) (* 1 s_6 ) (* 1 s_9 x ) ) 0) ) (>= (+ (* 1 c c_13 ) (* 1 c_12 ) (* 1 c_14 flag ) (* 1 c_15 x ) (* 1 c_16 y ) (* 1 c_17 z ) ) 0) )))

(check-sat)
(get-model)
